(set-logic QF_S)
(declare-fun var0 () String)
(declare-fun var1 () String)
(declare-fun var2 () String)
(declare-fun var3 () String)
(declare-fun var4 () Int)
(declare-fun var5 () Int)
(declare-fun var6 () Int)
(assert (str.in.re (str.replace var0 var1 var2) (re.+ re.allchar)))
(assert (str.prefixof var3 var0))
(assert (<= (str.len (str.at var2 var4)) (str.len (str.replace "/i" var3 var1))))
(assert (> (str.len (str.substr var0 var5 var6)) (str.to.int var1)))
(check-sat)